30
1 0 42
2 0 6
2 1 23
3 0 17
3 1 20
3 2 16
4 0 31
4 1 16
4 2 12
4 3 6
5 0 22
5 1 34
5 2 10
5 3 31
5 4 17
6 0 15
6 1 35
6 2 34
6 3 47
6 4 50
6 5 4
7 0 12
7 1 8
7 2 40
7 3 32
7 4 7
7 5 28
7 6 3
8 0 40
8 1 42
8 2 37
8 3 44
8 4 27
8 5 42
8 6 25
8 7 32
9 0 36
9 1 4
9 2 23
9 3 19
9 4 4
9 5 25
9 6 44
9 7 44
9 8 11
10 0 47
10 1 14
10 2 17
10 3 17
10 4 9
10 5 40
10 6 42
10 7 10
10 8 3
10 9 24
11 0 19
11 1 9
11 2 27
11 3 13
11 4 47
11 5 12
11 6 27
11 7 30
11 8 44
11 9 36
11 10 37
12 0 41
12 1 36
12 2 42
12 3 35
12 4 9
12 5 48
12 6 15
12 7 42
12 8 9
12 9 30
12 10 32
12 11 22
13 0 46
13 1 26
13 2 8
13 3 29
13 4 15
13 5 42
13 6 21
13 7 21
13 8 24
13 9 45
13 10 35
13 11 33
13 12 34
14 0 25
14 1 3
14 2 41
14 3 35
14 4 32
14 5 33
14 6 35
14 7 6
14 8 33
14 9 30
14 10 9
14 11 30
14 12 42
14 13 31
15 0 18
15 1 25
15 2 28
15 3 47
15 4 25
15 5 31
15 6 35
15 7 28
15 8 14
15 9 7
15 10 3
15 11 34
15 12 28
15 13 35
15 14 30
16 0 39
16 1 13
16 2 17
16 3 3
16 4 42
16 5 29
16 6 37
16 7 16
16 8 35
16 9 5
16 10 8
16 11 9
16 12 21
16 13 47
16 14 32
16 15 43
17 0 8
17 1 38
17 2 30
17 3 13
17 4 50
17 5 17
17 6 47
17 7 23
17 8 34
17 9 9
17 10 6
17 11 24
17 12 12
17 13 50
17 14 1
17 15 4
17 16 48
18 0 24
18 1 13
18 2 50
18 3 7
18 4 16
18 5 33
18 6 5
18 7 27
18 8 35
18 9 39
18 10 9
18 11 30
18 12 24
18 13 27
18 14 30
18 15 37
18 16 47
18 17 47
19 0 33
19 1 21
19 2 34
19 3 40
19 4 40
19 5 28
19 6 10
19 7 13
19 8 35
19 9 35
19 10 9
19 11 30
19 12 1
19 13 50
19 14 18
19 15 16
19 16 23
19 17 39
19 18 44
20 0 44
20 1 45
20 2 17
20 3 2
20 4 10
20 5 29
20 6 19
20 7 5
20 8 1
20 9 48
20 10 42
20 11 32
20 12 40
20 13 38
20 14 23
20 15 23
20 16 29
20 17 35
20 18 12
20 19 2
21 0 48
21 1 27
21 2 12
21 3 4
21 4 10
21 5 41
21 6 48
21 7 35
21 8 16
21 9 49
21 10 42
21 11 8
21 12 18
21 13 50
21 14 44
21 15 18
21 16 5
21 17 41
21 18 8
21 19 22
21 20 19
22 0 48
22 1 44
22 2 2
22 3 26
22 4 17
22 5 20
22 6 17
22 7 19
22 8 44
22 9 1
22 10 39
22 11 9
22 12 37
22 13 40
22 14 49
22 15 12
22 16 9
22 17 20
22 18 28
22 19 7
22 20 11
22 21 50
23 0 30
23 1 39
23 2 36
23 3 35
23 4 2
23 5 38
23 6 29
23 7 32
23 8 11
23 9 36
23 10 13
23 11 17
23 12 26
23 13 29
23 14 28
23 15 27
23 16 27
23 17 2
23 18 21
23 19 25
23 20 28
23 21 31
23 22 31
24 0 6
24 1 48
24 2 1
24 3 45
24 4 26
24 5 48
24 6 43
24 7 27
24 8 28
24 9 50
24 10 36
24 11 2
24 12 13
24 13 18
24 14 14
24 15 23
24 16 49
24 17 44
24 18 3
24 19 44
24 20 47
24 21 9
24 22 38
24 23 31
25 0 22
25 1 18
25 2 20
25 3 21
25 4 41
25 5 11
25 6 39
25 7 33
25 8 50
25 9 35
25 10 43
25 11 21
25 12 16
25 13 28
25 14 3
25 15 34
25 16 30
25 17 6
25 18 42
25 19 16
25 20 8
25 21 7
25 22 34
25 23 28
25 24 45
26 0 12
26 1 25
26 2 42
26 3 38
26 4 31
26 5 18
26 6 24
26 7 3
26 8 44
26 9 22
26 10 31
26 11 38
26 12 49
26 13 12
26 14 16
26 15 23
26 16 3
26 17 9
26 18 25
26 19 38
26 20 16
26 21 40
26 22 20
26 23 12
26 24 16
26 25 48
27 0 44
27 1 9
27 2 21
27 3 4
27 4 13
27 5 48
27 6 5
27 7 21
27 8 42
27 9 21
27 10 28
27 11 15
27 12 20
27 13 47
27 14 32
27 15 20
27 16 5
27 17 47
27 18 4
27 19 37
27 20 24
27 21 41
27 22 37
27 23 38
27 24 45
27 25 45
27 26 5
28 0 43
28 1 10
28 2 35
28 3 9
28 4 14
28 5 36
28 6 28
28 7 2
28 8 43
28 9 35
28 10 28
28 11 50
28 12 27
28 13 43
28 14 10
28 15 23
28 16 15
28 17 37
28 18 14
28 19 13
28 20 49
28 21 46
28 22 47
28 23 22
28 24 16
28 25 15
28 26 45
28 27 50
29 0 44
29 1 1
29 2 3
29 3 18
29 4 48
29 5 46
29 6 24
29 7 15
29 8 26
29 9 6
29 10 1
29 11 20
29 12 41
29 13 32
29 14 11
29 15 38
29 16 8
29 17 45
29 18 13
29 19 10
29 20 1
29 21 25
29 22 8
29 23 7
29 24 22
29 25 39
29 26 26
29 27 14
29 28 27
